c description: Random 3-CNF over 11 variables and 22 clauses
p cnf 11 22
-1 -10 11 0
2 -3 -10 0
-3 -4 7 0
3 7 -11 0
-1 -3 -9 0
4 7 -11 0
7 -8 10 0
2 -3 7 0
1 -7 -9 0
-2 6 9 0
3 -5 -6 0
-2 4 6 0
-1 -2 -6 0
3 -8 10 0
-1 8 11 0
-4 7 8 0
-4 5 8 0
2 7 11 0
2 -6 -7 0
8 9 10 0
1 5 6 0
-1 -9 -10 0